NAME: inst5.atsp
TYPE: ATSP
DIMENSION: 9
EDGE_WEIGHT_TYPE: EXPLICIT
EDGE_WEIGHT_FORMAT: FULL_MATRIX
EDGE_WEIGHT_SECTION:
0 73 80 31 65 33 28 64 90
81 0 6 24 44 69 99 23 19
13 67 0 85 96 49 75 20 95
56 52 8 0 33 89 97 37 40
55 49 75 46 0 33 90 80 85
100 21 59 98 95 0 95 33 97
60 18 99 66 54 98 0 31 60
10 89 75 32 87 87 28 0 72
58 28 76 67 54 81 20 93 0
EOF